 200 66 
 40 21 60 8 59 9 56 41 87 87 96 57 
 13 26 94 62 30 35 2 82 37 69 97 100 
 44 31 93 32 5 61 79 80 57 23 23 75 
 78 8 8 46 86 2 2 87 77 64 66 63 
 4 38 58 31 66 20 36 24 5 47 34 46 
 8 4 52 33 38 88 
 4 
 8 11 25 46 
 45 
 4 5 6 8 9 10 11 12 13 14 15 17 
 18 19 20 21 22 25 28 29 30 33 34 35 
 37 38 39 40 41 43 45 46 47 48 50 53 
 55 56 57 59 60 61 63 65 66 
 51 
 1 2 3 4 5 9 11 12 13 14 15 16 
 17 18 19 21 22 23 24 25 26 28 29 30 
 31 33 34 35 36 37 38 39 40 41 43 44 
 45 46 48 49 51 52 54 55 56 57 58 61 
 63 64 66 
 51 
 2 3 4 6 7 8 9 10 11 12 13 14 
 15 16 18 19 20 21 22 24 26 27 29 30 
 33 34 35 36 37 38 39 40 41 42 43 44 
 45 46 49 50 51 52 53 55 58 59 61 62 
 63 64 65 
 58 
 1 2 4 5 6 7 8 9 10 11 12 13 
 14 15 16 18 19 20 21 22 24 25 26 27 
 28 29 30 31 32 33 34 35 37 38 39 41 
 42 43 44 46 47 48 49 50 52 53 55 56 
 57 58 59 60 61 62 63 64 65 66 
 64 
 1 2 3 4 5 6 7 8 9 11 12 13 
 14 15 16 17 18 19 20 21 23 24 25 26 
 27 28 29 30 31 32 33 34 35 36 37 38 
 39 40 41 42 43 44 45 46 47 48 49 50 
 51 52 53 54 55 56 57 58 59 60 61 62 
 63 64 65 66 
 2 
 21 32 
 42 
 1 3 5 6 7 8 9 13 14 15 16 17 
 18 19 20 21 22 23 26 27 28 30 31 33 
 34 36 37 38 39 40 42 43 45 48 49 50 
 56 57 60 62 64 65 
 39 
 1 2 4 9 12 14 15 18 19 22 24 26 
 27 32 34 36 38 39 40 41 42 43 46 47 
 48 49 50 52 54 56 57 58 59 60 62 63 
 64 65 66 
 35 
 2 3 6 11 12 13 14 16 19 20 21 23 
 24 26 28 29 32 35 37 38 39 41 42 47 
 48 51 52 56 57 60 61 62 63 64 65 
 56 
 1 2 3 4 5 6 7 8 9 10 11 12 
 13 14 16 17 19 20 22 23 24 25 26 27 
 30 31 32 34 36 37 38 39 40 41 42 43 
 44 46 47 48 49 50 51 52 53 54 55 56 
 57 58 59 60 61 62 63 66 
 56 
 1 2 3 4 6 8 10 12 13 14 15 16 
 17 18 19 20 21 22 23 24 25 26 27 28 
 31 32 33 34 35 37 38 40 41 43 44 45 
 46 47 48 49 50 51 52 53 54 55 56 57 
 58 59 60 61 63 64 65 66 
 56 
 1 2 3 5 6 7 8 9 11 12 13 14 
 15 16 17 18 20 21 22 23 24 25 26 27 
 28 29 30 31 32 33 34 35 36 38 40 41 
 42 43 44 47 48 49 50 51 53 54 55 57 
 58 59 60 61 62 64 65 66 
 61 
 2 3 4 5 6 7 8 9 10 11 12 13 
 14 15 17 18 19 20 21 22 23 24 25 26 
 27 28 29 30 31 32 34 35 36 37 38 39 
 40 41 42 43 44 45 46 48 49 50 51 52 
 53 54 55 56 57 58 59 60 62 63 64 65 
 66 
 63 
 1 2 3 4 5 6 7 8 9 10 11 12 
 13 14 15 16 17 18 19 20 21 22 23 24 
 25 26 27 28 29 30 31 32 33 34 36 37 
 38 39 40 41 42 43 44 45 46 47 48 49 
 50 51 53 54 55 57 58 59 60 61 62 63 
 64 65 66 
 30 
 2 3 4 5 11 13 19 20 22 25 26 27 
 28 31 36 37 40 44 46 49 50 51 56 57 
 58 60 61 62 63 64 
 22 
 1 4 7 8 11 15 16 22 23 26 32 33 
 37 40 46 48 49 50 51 56 62 63 
 23 
 1 2 3 4 8 9 10 11 14 15 16 19 
 26 27 30 37 50 52 56 57 59 62 66 
 42 
 2 3 4 5 6 7 8 9 11 12 13 15 
 19 20 22 23 24 25 26 29 32 34 36 37 
 39 40 42 43 44 45 47 49 50 51 53 55 
 57 60 61 62 63 64 
 30 
 1 2 3 4 5 10 11 14 15 16 17 20 
 22 23 26 33 34 35 37 42 44 47 50 51 
 54 56 57 62 64 65 
 27 
 2 7 10 15 16 18 20 22 23 25 27 28 
 31 37 38 41 44 48 49 52 53 54 58 60 
 62 63 64 
 62 
 1 2 3 4 5 6 7 8 9 10 11 12 
 13 14 15 16 17 18 19 20 21 22 23 24 
 25 26 27 28 29 30 31 32 34 35 36 37 
 38 39 40 41 43 44 45 47 48 49 50 51 
 52 53 54 55 57 58 59 60 61 62 63 64 
 65 66 
 13 
 2 3 8 20 25 27 31 43 46 54 59 61 
 64 
 39 
 1 2 3 6 7 8 9 11 12 14 15 16 
 17 19 20 22 23 24 28 30 34 35 38 40 
 42 43 46 47 51 54 55 56 57 58 59 60 
 61 62 65 
 58 
 1 2 3 4 5 6 7 8 9 10 11 13 
 15 16 17 19 20 21 22 23 25 26 27 28 
 29 30 31 32 33 35 36 37 38 39 40 41 
 42 43 44 45 46 47 49 50 51 52 54 55 
 56 57 58 59 60 61 63 64 65 66 
 13 
 5 8 21 22 37 43 45 46 53 58 62 63 
 64 
 63 
 1 2 3 4 5 6 7 8 9 10 11 12 
 13 14 15 16 17 18 19 20 21 22 23 24 
 25 27 28 29 30 31 32 33 34 35 36 37 
 38 39 40 41 42 43 44 45 46 47 48 49 
 50 51 52 53 54 56 57 59 60 61 62 63 
 64 65 66 
 41 
 3 4 7 11 12 13 15 16 17 18 20 21 
 23 24 25 27 28 29 30 34 35 36 37 38 
 40 41 43 44 45 46 47 48 49 52 54 56 
 59 60 61 62 66 
 16 
 2 10 18 19 21 23 24 28 29 30 31 32 
 33 54 61 63 
 45 
 1 2 3 4 8 9 11 12 13 14 16 17 
 19 20 22 23 25 26 28 29 31 32 33 36 
 37 39 40 41 43 44 47 48 49 50 51 52 
 53 56 57 58 60 62 64 65 66 
 25 
 2 5 7 9 13 18 19 21 22 23 25 26 
 28 30 35 38 42 48 50 51 52 55 57 60 
 65 
 17 
 17 22 30 32 37 40 42 43 45 46 47 50 
 51 52 54 61 63 
 15 
 1 3 5 6 7 9 17 35 37 39 47 53 
 54 57 61 
 66 
 1 2 3 4 5 6 7 8 9 10 11 12 
 13 14 15 16 17 18 19 20 21 22 23 24 
 25 26 27 28 29 30 31 32 33 34 35 36 
 37 38 39 40 41 42 43 44 45 46 47 48 
 49 50 51 52 53 54 55 56 57 58 59 60 
 61 62 63 64 65 66 
 15 
 2 3 5 19 22 30 35 37 43 53 56 57 
 60 62 64 
 20 
 1 4 19 21 26 29 35 36 37 40 41 43 
 44 49 52 53 55 57 59 63 
 36 
 2 3 4 5 6 7 9 10 12 15 16 18 
 20 24 25 27 28 31 32 33 35 36 40 43 
 45 49 50 51 52 56 59 60 61 62 64 66 
 8 
 1 15 28 31 52 58 60 61 
 44 
 2 3 5 6 7 8 10 11 13 14 16 17 
 19 20 21 22 23 25 26 28 29 31 32 33 
 36 38 39 41 42 44 45 46 48 49 50 52 
 54 55 56 57 60 61 62 65 
 26 
 2 4 5 8 10 11 12 14 16 17 21 23 
 28 36 37 39 40 43 47 50 51 57 59 60 
 64 65 
 63 
 1 2 3 4 5 6 7 8 9 10 11 12 
 13 14 15 16 17 18 19 20 21 22 23 24 
 25 26 27 28 29 30 31 32 33 34 36 37 
 38 39 40 41 42 43 44 45 46 47 48 49 
 50 51 52 53 54 55 56 57 59 60 61 63 
 64 65 66 
 26 
 4 5 8 9 12 18 20 26 27 30 32 33 
 36 37 39 40 42 43 47 52 53 54 60 62 
 65 66 
 33 
 2 3 4 8 9 10 13 16 17 19 23 24 
 27 32 33 35 37 38 39 42 44 45 47 48 
 49 50 57 58 59 61 62 63 65 
 51 
 2 3 5 6 7 8 10 11 13 14 15 16 
 17 18 19 20 21 22 23 24 27 28 29 32 
 33 34 35 36 37 38 39 41 42 43 44 46 
 47 49 50 52 53 55 56 58 59 60 61 63 
 64 65 66 
 57 
 1 2 3 4 5 6 7 8 10 11 12 13 
 14 15 16 17 18 20 21 22 23 24 25 26 
 27 28 29 30 31 32 33 34 36 37 38 39 
 40 41 42 43 45 46 47 48 50 52 53 54 
 56 57 59 60 61 62 64 65 66 
 50 
 1 3 4 6 7 8 9 10 11 13 15 16 
 17 18 19 20 22 23 24 26 27 30 31 32 
 34 35 36 37 38 39 40 41 42 44 45 47 
 48 49 51 52 53 57 58 59 60 61 62 63 
 64 65 
 26 
 3 4 9 10 15 16 20 21 22 23 24 28 
 29 39 40 42 43 44 50 54 57 58 59 60 
 61 66 
 15 
 4 7 8 14 15 26 27 30 34 39 40 41 
 49 53 66 
 41 
 1 2 5 6 7 8 10 14 16 17 18 19 
 20 21 23 25 27 28 29 30 31 34 36 37 
 39 40 41 42 44 45 48 49 50 52 54 55 
 56 59 60 64 65 
 16 
 3 6 18 19 23 24 25 27 32 35 37 45 
 46 47 56 60 
 3 
 5 49 55 
 33 
 1 3 5 6 7 8 9 12 14 15 16 17 
 21 23 28 32 35 40 43 45 46 47 48 50 
 51 53 56 57 58 61 62 64 65 
 30 
 1 5 8 10 11 13 15 17 18 19 21 25 
 27 28 30 31 34 35 38 41 42 44 50 51 
 53 55 56 59 62 63 
 9 
 14 22 31 32 40 45 46 48 59 
 63 
 1 2 3 4 5 6 7 8 9 10 11 12 
 13 14 15 16 17 18 19 20 21 22 23 24 
 25 26 27 28 29 30 31 34 35 36 38 39 
 40 41 42 43 44 45 46 47 48 49 50 51 
 52 53 54 55 56 57 58 59 60 61 62 63 
 64 65 66 
 12 
 11 14 16 24 34 42 48 52 55 56 58 60 
 4 
 5 38 45 58 
 15 
 1 4 6 8 16 19 20 32 36 39 43 45 
 52 54 56 
 50 
 1 2 3 4 5 6 7 8 9 10 13 15 
 17 18 20 22 25 26 27 28 29 31 32 33 
 34 37 38 40 41 42 45 47 48 49 50 51 
 52 53 54 55 56 57 58 59 61 62 63 64 
 65 66 
 12 
 4 14 16 41 49 51 55 56 57 61 62 65 
 4 
 7 11 26 47 
 38 
 1 3 4 6 7 8 9 11 12 13 14 15 
 17 18 20 21 22 23 25 26 27 28 30 31 
 32 34 35 42 44 45 46 48 49 50 51 52 
 62 63 
 58 
 1 2 3 5 6 7 8 9 10 11 13 14 
 15 16 17 18 19 20 21 22 23 24 26 27 
 28 29 31 32 33 35 36 37 38 39 40 41 
 42 43 44 46 47 48 49 50 51 52 53 54 
 55 56 57 58 60 61 62 63 64 65 
 29 
 1 4 7 9 10 12 14 15 16 17 19 21 
 25 26 31 33 34 40 42 47 49 50 51 52 
 59 60 61 65 66 
 62 
 1 2 3 4 5 6 7 8 9 10 11 12 
 13 14 15 16 17 18 19 20 21 22 23 24 
 25 27 28 29 30 31 32 33 34 35 36 37 
 39 40 41 42 43 44 45 46 47 48 49 51 
 52 53 54 55 56 57 58 59 60 61 62 63 
 65 66 
 55 
 1 2 3 4 5 6 7 8 9 10 11 15 
 16 18 20 21 22 23 24 25 27 28 30 31 
 32 33 34 35 36 37 38 39 40 42 44 45 
 46 47 49 50 51 52 53 54 55 56 57 58 
 59 60 61 62 63 64 65 
 33 
 2 4 5 6 10 12 15 16 17 18 19 20 
 21 23 24 28 29 30 32 34 36 40 41 44 
 49 50 52 58 60 61 62 64 66 
 40 
 1 2 4 5 10 11 12 14 15 16 17 20 
 23 24 26 29 31 35 36 38 39 40 42 43 
 44 45 48 49 50 53 54 56 57 59 60 61 
 62 63 64 66 
 29 
 1 2 4 5 8 14 19 21 22 23 26 29 
 31 37 38 39 41 47 49 51 52 53 54 55 
 57 59 63 64 66 
 45 
 1 3 4 5 6 7 8 11 12 13 16 18 
 19 20 21 22 23 24 25 27 28 30 33 36 
 37 38 39 40 41 43 44 45 46 47 48 52 
 54 56 57 58 59 60 62 63 65 
 40 
 1 2 3 4 5 6 7 8 9 10 11 13 
 16 18 19 20 21 22 24 25 26 27 28 30 
 35 36 37 39 40 41 43 48 49 50 52 54 
 55 57 59 64 
 35 
 3 4 5 6 7 9 10 11 12 15 17 18 
 22 23 26 29 33 34 36 38 40 41 42 47 
 48 49 51 53 54 56 57 59 60 63 66 
 35 
 1 2 3 7 13 14 16 17 19 21 22 23 
 26 29 31 32 33 35 36 37 39 42 43 45 
 46 51 52 53 55 58 59 61 63 64 66 
 61 
 1 2 3 4 5 6 7 8 10 11 12 13 
 14 16 17 18 19 20 21 22 23 24 25 26 
 27 28 29 30 31 33 34 35 36 37 38 39 
 40 41 42 43 44 45 46 47 48 49 50 52 
 54 55 56 57 58 59 60 61 62 63 64 65 
 66 
 18 
 1 4 11 20 24 25 27 30 32 35 37 43 
 44 48 55 62 64 65 
 5 
 9 26 31 56 57 
 61 
 1 2 3 4 5 6 7 8 9 10 11 13 
 14 15 16 17 18 19 20 21 23 24 25 26 
 27 28 29 30 31 32 33 34 35 36 37 38 
 39 40 41 42 43 44 45 46 48 49 50 51 
 52 54 55 56 57 59 60 61 62 63 64 65 
 66 
 41 
 2 3 5 6 7 11 12 16 17 18 20 22 
 23 24 25 29 30 32 33 34 35 36 37 40 
 42 43 45 46 47 48 52 53 54 55 57 59 
 60 61 63 64 66 
 12 
 1 13 14 38 40 41 46 50 53 56 61 65 
 29 
 2 3 4 8 9 13 14 15 21 22 24 26 
 29 30 31 33 36 40 43 44 46 48 54 57 
 61 63 64 65 66 
 39 
 1 3 4 6 7 8 9 10 13 17 19 22 
 23 26 27 28 29 31 32 34 36 37 38 39 
 41 44 45 46 48 49 50 52 54 56 57 59 
 61 62 64 
 9 
 1 4 19 24 34 40 42 43 64 
 22 
 2 12 16 18 19 21 28 31 37 38 40 46 
 47 49 52 53 54 57 61 62 63 65 
 65 
 1 2 3 4 5 6 7 8 9 10 11 12 
 13 14 15 17 18 19 20 21 22 23 24 25 
 26 27 28 29 30 31 32 33 34 35 36 37 
 38 39 40 41 42 43 44 45 46 47 48 49 
 50 51 52 53 54 55 56 57 58 59 60 61 
 62 63 64 65 66 
 32 
 5 6 8 9 10 13 15 16 17 18 19 23 
 25 26 29 31 32 41 42 44 45 46 47 49 
 50 54 56 58 60 62 63 64 
 60 
 1 2 3 4 5 6 7 8 9 10 11 12 
 13 14 15 16 17 18 19 20 21 22 23 24 
 25 26 27 28 29 30 32 33 34 35 36 37 
 38 40 41 42 43 44 45 46 47 48 49 51 
 54 55 56 57 58 59 60 61 62 63 65 66 
 26 
 2 4 6 8 10 11 13 14 30 32 33 34 
 35 41 42 43 45 47 48 51 54 56 59 61 
 63 65 
 46 
 3 4 5 6 7 9 10 12 14 15 17 18 
 19 22 23 24 25 26 27 28 29 32 33 35 
 36 38 41 42 43 44 46 47 51 52 53 54 
 55 56 57 59 60 61 62 63 65 66 
 45 
 1 3 4 5 6 8 9 10 11 12 13 14 
 15 17 18 19 21 22 24 25 28 29 31 34 
 35 37 40 41 43 44 45 47 48 49 50 51 
 52 53 54 55 56 60 62 64 65 
 12 
 3 6 9 12 15 22 23 35 40 49 55 57 
 6 
 1 6 13 21 42 43 
 18 
 1 3 9 12 16 25 35 40 43 46 48 53 
 56 57 60 61 63 65 
 10 
 3 9 14 35 36 37 45 46 47 59 
 59 
 1 2 3 5 6 7 8 9 10 11 12 13 
 14 16 17 18 20 21 22 23 24 25 26 27 
 28 30 31 32 33 34 35 36 37 38 39 40 
 41 42 43 44 45 47 48 49 50 51 52 53 
 54 56 57 58 59 60 62 63 64 65 66 
 46 
 1 2 3 4 5 7 8 9 12 13 15 16 
 17 19 20 22 24 25 26 27 31 32 33 34 
 35 36 38 39 40 42 43 45 46 47 51 52 
 53 55 57 59 60 61 62 63 64 65 
 31 
 2 4 6 7 8 9 10 11 12 16 17 19 
 20 21 23 28 32 34 36 38 41 45 50 53 
 55 59 60 61 62 64 66 
 8 
 9 10 12 14 15 20 45 65 
 37 
 2 5 9 12 14 15 16 17 20 21 23 24 
 25 29 31 33 34 35 36 38 39 42 43 44 
 45 47 48 49 51 52 54 55 56 59 60 61 
 62 
 19 
 1 5 10 13 16 20 22 24 29 32 33 34 
 38 45 49 51 54 60 62 
 39 
 2 3 4 5 8 9 13 14 15 16 17 18 
 19 21 23 24 26 27 28 29 37 38 39 45 
 47 48 49 50 51 53 54 55 56 57 58 61 
 63 64 65 
 9 
 4 5 20 25 48 54 59 60 66 
 45 
 1 3 4 6 7 8 9 12 13 14 15 16 
 17 19 22 23 24 25 26 28 29 32 33 37 
 38 40 41 42 43 44 46 48 50 52 54 55 
 58 59 60 61 62 63 64 65 66 
 26 
 1 7 10 12 14 19 20 21 22 25 27 31 
 34 35 36 39 41 46 47 49 50 52 53 57 
 59 61 
 48 
 1 2 3 4 5 6 8 9 10 12 13 15 
 16 17 18 19 21 22 25 26 30 31 32 33 
 34 35 38 40 41 43 45 46 47 48 49 50 
 53 54 55 57 58 59 60 62 63 64 65 66 
 43 
 1 2 3 4 8 10 15 16 17 18 19 21 
 22 24 25 26 27 28 29 30 32 33 35 36 
 39 40 42 43 44 45 46 48 49 51 52 53 
 54 55 56 58 63 64 66 
 59 
 1 2 3 4 5 6 7 8 9 10 11 12 
 13 14 15 16 17 18 19 20 21 24 25 26 
 27 28 29 30 32 33 34 35 36 37 38 39 
 40 41 42 44 45 47 48 50 51 52 53 54 
 55 56 57 59 60 61 62 63 64 65 66 
 58 
 1 2 3 5 6 7 9 10 11 12 13 14 
 15 16 17 18 19 20 21 22 23 24 25 26 
 27 29 30 31 32 34 35 36 38 39 40 41 
 42 43 44 45 46 47 48 49 50 51 52 53 
 54 56 58 59 61 62 63 64 65 66 
 7 
 10 18 20 23 42 58 63 
 6 
 11 21 26 31 35 54 
 16 
 2 6 15 17 19 28 35 37 39 40 44 46 
 47 50 60 64 
 27 
 4 5 10 11 13 15 16 17 20 21 23 24 
 28 32 33 36 37 40 43 45 48 51 52 53 
 60 65 66 
 12 
 3 4 12 29 30 32 40 46 50 64 65 66 
 10 
 13 16 28 29 35 38 40 43 55 61 
 41 
 2 4 7 8 9 10 11 12 13 15 19 23 
 24 25 26 27 28 29 31 33 34 35 36 37 
 39 41 42 43 45 46 47 48 50 51 57 58 
 59 60 63 65 66 
 47 
 1 2 3 5 6 7 8 9 10 13 14 15 
 16 17 19 20 21 23 24 29 30 31 32 34 
 35 37 39 40 41 43 44 45 49 50 51 52 
 53 54 55 56 57 58 60 63 64 65 66 
 42 
 1 4 5 6 7 8 10 12 13 14 16 17 
 18 19 20 22 24 25 27 30 31 33 34 35 
 36 39 40 41 42 44 45 48 51 52 54 55 
 56 62 63 64 65 66 
 55 
 2 3 4 5 6 9 10 12 13 14 15 16 
 17 18 19 20 21 22 23 24 25 26 27 28 
 29 30 31 33 34 35 36 37 38 39 40 41 
 43 44 45 47 49 50 51 52 53 54 55 56 
 57 58 61 62 63 65 66 
 58 
 1 2 4 5 6 8 9 10 11 12 13 14 
 15 16 17 18 19 20 21 22 23 24 25 26 
 27 29 30 32 34 35 36 37 38 39 40 41 
 43 46 47 48 49 50 51 52 53 54 55 56 
 57 58 59 60 61 62 63 64 65 66 
 47 
 1 2 3 4 6 7 8 9 11 12 14 15 
 18 19 20 21 24 25 26 27 28 30 31 32 
 33 34 35 41 42 43 44 45 46 48 49 50 
 51 55 56 57 58 59 60 61 62 64 65 
 45 
 1 2 3 4 5 7 8 9 10 11 12 14 
 16 17 19 20 22 23 24 26 29 30 31 32 
 33 35 36 38 39 40 41 44 45 47 49 50 
 53 54 57 59 60 61 62 63 66 
 24 
 2 3 7 14 17 18 20 22 25 28 30 32 
 36 37 38 40 41 47 48 51 57 58 61 63 
 59 
 1 2 3 4 5 7 8 9 10 11 12 13 
 14 15 16 17 18 19 20 21 22 23 24 26 
 27 28 29 30 33 34 35 36 37 38 39 40 
 41 42 43 44 45 46 47 48 49 50 51 53 
 54 55 56 57 58 60 61 62 63 65 66 
 13 
 1 2 7 13 20 21 23 31 39 40 52 56 
 63 
 9 
 3 6 11 33 45 47 50 60 61 
 6 
 3 11 34 40 41 60 
 62 
 1 2 3 4 5 6 7 8 9 11 12 13 
 14 15 16 17 18 19 20 21 22 23 24 25 
 26 27 28 30 31 32 33 34 35 36 37 38 
 39 40 41 42 43 44 45 46 47 48 49 50 
 51 52 53 54 57 58 59 60 61 62 63 64 
 65 66 
 38 
 1 2 4 5 7 9 10 11 12 14 15 16 
 17 18 19 21 23 24 25 27 29 31 34 35 
 36 40 47 48 50 51 52 53 56 58 60 61 
 63 66 
 58 
 1 2 3 4 5 6 7 8 9 12 13 14 
 16 17 18 20 21 24 25 26 27 28 29 30 
 31 32 35 36 37 38 39 40 41 42 43 44 
 45 46 47 48 49 50 51 52 53 54 55 56 
 57 58 59 60 61 62 63 64 65 66 
 46 
 1 2 3 5 6 7 9 11 12 15 16 18 
 19 22 24 25 26 28 29 30 31 34 35 37 
 38 40 41 42 43 44 45 46 48 49 50 51 
 53 54 55 57 58 59 60 64 65 66 
 53 
 1 2 3 4 5 8 9 10 12 14 15 16 
 18 19 20 22 23 24 25 26 27 29 30 31 
 32 34 35 36 38 39 40 41 42 43 44 45 
 46 47 48 49 50 51 52 53 54 56 57 58 
 59 61 64 65 66 
 5 
 12 16 43 52 65 
 12 
 2 3 14 19 21 23 28 32 45 48 55 66 
 54 
 1 3 4 5 7 8 9 10 11 12 13 15 
 16 18 19 20 21 22 24 25 28 29 30 31 
 32 33 34 35 36 37 38 39 41 42 43 45 
 46 48 49 50 52 53 54 55 56 57 58 59 
 60 61 62 63 64 65 
 21 
 1 6 7 16 17 20 23 25 28 29 34 37 
 42 44 47 50 51 55 59 64 65 
 37 
 1 2 4 7 10 11 12 13 15 16 21 23 
 24 27 28 31 33 37 38 40 42 43 46 47 
 48 49 50 53 54 56 58 59 60 61 62 63 
 65 
 14 
 1 2 6 8 15 20 29 37 43 46 51 52 
 56 57 
 18 
 6 12 13 16 17 20 21 24 27 32 41 43 
 50 51 53 60 61 65 
 29 
 1 4 9 10 11 13 14 18 19 20 21 22 
 23 24 27 31 32 33 34 42 44 47 48 51 
 52 55 58 62 66 
 34 
 3 6 8 12 13 15 17 20 21 22 24 27 
 29 30 31 33 35 37 38 39 40 41 42 44 
 46 48 50 54 55 57 58 61 62 66 
 23 
 1 3 5 6 7 8 11 13 15 21 27 30 
 34 35 36 41 43 47 55 56 58 61 64 
 59 
 1 2 3 5 6 7 8 9 10 11 12 13 
 14 15 16 17 18 20 21 22 24 25 26 27 
 28 29 30 31 32 33 35 37 38 39 40 41 
 42 43 45 46 47 48 49 50 51 52 53 54 
 55 56 57 58 59 60 61 62 63 64 65 
 29 
 1 3 4 9 12 16 21 23 24 25 27 28 
 30 31 33 36 37 39 42 44 46 48 49 50 
 51 56 57 60 64 
 3 
 9 44 51 
 10 
 10 11 13 15 19 31 32 41 52 53 
 30 
 1 3 4 5 9 15 17 18 19 22 25 26 
 28 29 33 36 37 41 43 45 48 50 52 54 
 55 56 57 58 60 61 
 54 
 1 2 3 4 5 6 7 8 9 10 11 12 
 13 14 15 16 18 19 20 22 23 24 25 27 
 28 29 30 32 33 35 36 37 39 40 41 45 
 46 47 48 49 50 51 52 53 54 55 56 57 
 58 59 61 63 64 65 
 3 
 49 51 60 
 24 
 1 4 5 10 11 13 14 16 19 24 26 28 
 30 31 32 42 44 49 50 53 56 61 64 65 
 17 
 1 15 17 20 22 28 31 32 37 39 41 48 
 50 55 58 65 66 
 18 
 2 6 7 13 23 30 33 35 41 42 44 49 
 51 52 61 62 63 64 
 10 
 10 21 27 28 33 42 45 59 60 65 
 55 
 1 2 3 5 6 7 8 9 10 12 13 14 
 17 18 19 20 21 22 23 24 25 26 27 28 
 29 30 31 32 34 35 36 37 38 39 40 41 
 42 44 46 47 48 50 51 52 53 54 55 57 
 59 60 61 62 63 65 66 
 10 
 4 5 9 17 20 36 46 58 59 64 
 8 
 5 7 27 33 37 63 65 66 
 44 
 1 3 4 5 6 7 8 9 10 12 13 18 
 21 22 24 25 26 27 29 30 31 32 36 38 
 39 40 41 42 43 44 46 47 48 49 52 53 
 56 57 58 59 61 63 64 66 
 57 
 1 2 5 6 7 8 9 10 11 12 13 15 
 16 17 18 19 20 21 23 24 25 26 27 28 
 29 30 31 32 33 34 35 36 37 38 39 40 
 42 43 44 45 47 48 49 50 52 53 54 55 
 56 58 59 60 61 63 64 65 66 
 44 
 1 3 4 6 7 8 10 12 17 18 19 20 
 22 24 25 26 29 30 31 33 34 35 37 38 
 39 40 41 44 45 46 47 48 49 51 53 56 
 57 58 59 60 61 62 65 66 
 17 
 5 8 11 13 14 19 21 36 38 39 40 43 
 55 56 57 60 64 
 52 
 1 2 3 4 5 6 8 10 11 12 15 16 
 17 18 19 20 22 23 24 25 26 27 28 29 
 31 33 34 35 36 39 40 41 45 46 47 48 
 49 50 51 52 53 55 56 57 58 59 60 61 
 62 63 64 65 
 17 
 6 10 12 13 20 21 22 24 29 30 42 49 
 50 54 57 59 63 
 30 
 7 11 14 15 17 18 22 28 29 31 32 34 
 35 36 40 42 44 48 49 50 51 54 55 57 
 59 61 63 64 65 66 
 60 
 1 2 3 4 5 6 7 8 9 10 11 12 
 13 14 15 16 17 18 19 20 21 22 23 27 
 28 29 30 31 32 34 35 36 37 38 39 40 
 41 42 43 45 47 48 49 50 51 52 53 54 
 55 56 57 58 59 60 61 62 63 64 65 66 
 47 
 1 2 5 6 7 11 12 14 15 16 17 18 
 19 20 22 23 25 26 27 28 29 31 32 33 
 34 35 37 40 42 43 44 46 47 48 49 50 
 51 52 54 55 56 57 59 61 62 63 66 
 5 
 7 8 20 21 31 
 56 
 1 2 3 4 5 6 7 8 9 10 12 13 
 14 15 16 17 18 19 20 21 22 24 25 26 
 29 30 31 32 33 34 35 36 38 39 40 41 
 42 43 44 46 47 48 49 51 52 53 54 55 
 56 57 58 59 60 62 64 66 
 11 
 3 4 9 12 16 27 38 44 57 59 64 
 10 
 6 7 15 16 22 25 34 35 57 64 
 44 
 1 2 3 5 6 9 10 11 12 13 16 17 
 18 19 20 21 23 25 26 27 28 29 30 31 
 32 33 35 36 37 38 41 42 44 46 48 49 
 50 51 52 55 60 63 65 66 
 30 
 1 2 4 5 7 9 10 11 12 14 17 18 
 21 23 25 30 37 38 41 42 46 47 51 56 
 57 60 61 63 64 65 
 29 
 3 4 5 6 7 8 9 10 14 17 20 24 
 29 30 39 41 42 45 46 50 51 52 55 56 
 57 59 63 64 65 
 48 
 1 2 3 4 5 6 8 10 11 12 13 15 
 16 17 20 21 22 24 27 28 29 30 32 34 
 35 36 37 39 40 41 42 44 47 48 49 51 
 52 53 54 55 56 58 59 60 61 62 63 66 
 41 
 1 2 5 7 10 11 12 13 14 15 16 17 
 18 19 20 24 25 27 28 29 30 31 34 35 
 37 39 40 43 45 46 47 48 51 52 54 55 
 58 60 63 64 66 
 7 
 12 13 15 20 48 55 56 
 56 
 1 2 3 5 6 7 8 9 10 11 12 13 
 14 15 16 17 18 19 20 21 22 23 24 25 
 27 28 29 31 32 34 36 37 38 39 42 43 
 44 45 46 48 49 50 51 52 53 54 55 57 
 59 60 61 62 63 64 65 66 
 39 
 3 4 6 8 9 10 11 12 15 18 21 22 
 23 29 31 33 34 35 37 39 40 41 44 45 
 46 48 50 51 52 53 55 56 57 59 61 62 
 63 65 66 
 55 
 1 2 3 4 5 6 8 9 10 11 12 14 
 15 16 20 21 22 23 24 25 26 27 28 29 
 30 32 33 35 36 37 38 39 40 41 42 43 
 44 45 46 48 50 51 52 53 54 56 57 58 
 59 60 61 63 64 65 66 
 60 
 1 2 3 4 5 6 7 8 9 10 11 13 
 14 15 16 17 18 19 20 21 22 23 24 25 
 26 27 28 29 30 31 32 33 34 35 36 37 
 38 39 40 41 43 44 45 46 48 49 50 52 
 54 55 56 58 59 60 61 62 63 64 65 66 
 29 
 2 5 6 7 13 15 16 20 21 22 25 27 
 30 32 33 35 40 42 43 44 46 52 54 56 
 57 60 64 65 66 
 28 
 3 5 6 9 10 11 14 16 17 19 23 27 
 28 31 32 34 36 39 41 43 45 47 51 52 
 56 62 64 66 
 12 
 16 19 27 31 38 39 41 45 54 56 58 65 
 46 
 1 2 3 5 7 10 11 13 14 18 19 20 
 21 22 23 24 25 26 28 29 30 31 32 33 
 36 37 41 42 44 45 48 49 50 51 52 53 
 54 56 57 58 60 61 62 63 64 65 
 42 
 1 2 7 10 12 14 15 18 19 20 21 22 
 23 24 25 27 28 29 31 32 34 35 36 37 
 39 44 45 46 47 48 49 50 51 52 56 59 
 60 61 62 63 65 66 
 22 
 3 6 8 10 11 17 21 25 26 33 35 36 
 37 39 42 44 45 47 49 57 58 62 
 9 
 2 8 14 31 33 42 51 55 56 
 55 
 1 2 3 4 5 6 7 8 9 10 12 13 
 14 16 19 20 21 22 23 24 25 26 27 28 
 29 30 31 32 33 34 35 36 37 39 41 42 
 43 45 46 47 48 49 50 52 53 54 55 56 
 58 59 60 61 62 63 65 
 33 
 3 5 6 7 8 9 13 18 19 20 21 22 
 23 24 25 26 28 29 32 37 40 41 44 45 
 47 48 53 57 58 59 60 61 62 
 7 
 2 5 11 23 28 32 65 
 6 
 25 44 45 48 49 65 
 49 
 2 5 6 7 8 10 11 13 14 17 18 19 
 21 22 23 24 25 26 27 28 29 30 31 34 
 36 37 38 39 41 46 47 48 49 50 51 52 
 53 55 56 57 58 59 60 61 62 63 64 65 
 66 
 17 
 3 6 7 15 20 25 29 33 34 38 41 44 
 46 55 58 60 65 
 44 
 1 2 5 7 9 11 13 14 16 17 18 19 
 20 25 27 29 31 33 34 37 38 39 40 42 
 43 44 45 46 47 48 50 51 52 53 54 55 
 56 57 59 60 62 63 64 65 
 22 
 10 12 14 15 20 22 23 27 30 31 33 36 
 41 42 43 45 56 60 62 63 64 66 
 18 
 3 8 13 17 19 21 28 30 33 38 40 45 
 52 57 60 61 62 66 
 54 
 1 2 3 4 5 6 7 9 10 11 12 13 
 15 16 17 18 19 20 21 23 24 26 27 28 
 29 30 31 32 33 34 35 40 41 42 43 45 
 46 49 50 51 52 53 54 55 56 57 58 59 
 60 61 62 63 65 66 
 62 
 1 2 3 5 6 7 8 9 10 11 12 14 
 15 16 17 18 19 20 21 22 23 24 25 26 
 27 28 29 30 31 32 33 34 35 36 37 38 
 39 40 41 42 43 44 45 47 48 49 50 51 
 52 53 54 55 56 57 58 60 61 62 63 64 
 65 66 
 52 
 1 2 3 4 6 7 8 11 12 13 14 15 
 17 18 19 20 21 22 24 25 26 28 30 31 
 32 33 35 36 37 38 41 43 44 46 47 49 
 50 51 52 53 54 55 56 57 58 59 60 62 
 63 64 65 66 
 10 
 1 3 14 17 21 25 50 57 63 65 
 33 
 3 8 9 11 16 21 22 23 24 26 27 28 
 29 30 31 32 35 36 38 40 41 43 45 46 
 50 51 52 54 57 61 62 63 64 
 42 
 2 3 5 7 8 10 11 14 16 18 19 20 
 21 22 23 26 30 31 34 35 36 37 39 40 
 44 45 46 48 49 50 52 53 55 57 58 59 
 60 61 62 63 64 65 
 19 
 4 6 7 8 11 15 16 22 26 27 35 43 
 47 49 50 54 59 61 63 
 